NAME = file180,
TOURSIZE = 180,
LENGTH = 12360,
1,12,11,10,9,8,7,6,5,4,3,2,127,126,125,124,123,122,121,132,131,130,129,128,25,36,35,34,33,32,31,30,29,28,27,26,85,96,95,94,93,92,91,90,89,88,87,86,51,50,49,60,59,58,57,56,55,54,53,52,63,62,61,72,71,70,69,68,67,66,65,64,153,152,151,150,149,148,147,146,145,156,155,154,137,136,135,134,133,144,143,142,141,140,139,138,15,14,13,24,23,22,21,20,19,18,17,16,76,77,78,79,80,81,82,83,84,73,74,75,170,171,172,173,174,175,176,177,178,179,180,169,38,39,40,41,42,43,44,45,46,47,48,37,100,101,102,103,104,105,106,107,108,97,98,99,110,111,112,113,114,115,116,117,118,119,120,109,159,158,157,168,167,166,165,164,163,162,161,160
